
Gurobi 11.0.1 (win64) logging started Tue May 14 18:25:27 2024

Set parameter LogFile to value "output/solver_log20.txt"
Gurobi Optimizer version 11.0.1 build v11.0.1rc0 (win64 - Windows 11.0 (22631.2))

CPU model: 11th Gen Intel(R) Core(TM) i7-1165G7 @ 2.80GHz, instruction set [SSE2|AVX|AVX2|AVX512]
Thread count: 4 physical cores, 8 logical processors, using up to 8 threads

Optimize a model with 1060 rows, 203 columns and 19906 nonzeros
Model fingerprint: 0x6c91e89a
Variable types: 88 continuous, 115 integer (115 binary)
Coefficient statistics:
  Matrix range     [4e-01, 1e+05]
  Objective range  [1e+00, 1e+02]
  Bounds range     [1e+00, 1e+00]
  RHS range        [1e-02, 1e+05]

User MIP start produced solution with objective 38085.5 (0.00s)
User MIP start produced solution with objective 39287.1 (0.00s)
User MIP start produced solution with objective 39287.1 (0.00s)
Loaded user MIP start with objective 39287.1

Presolve removed 80 rows and 82 columns
Presolve time: 0.02s
Presolved: 980 rows, 121 columns, 19369 nonzeros
Variable types: 81 continuous, 40 integer (40 binary)

Root relaxation: objective 4.025512e+04, 234 iterations, 0.01 seconds (0.03 work units)

    Nodes    |    Current Node    |     Objective Bounds      |     Work
 Expl Unexpl |  Obj  Depth IntInf | Incumbent    BestBd   Gap | It/Node Time

     0     0 40255.1217    0    4 39287.0790 40255.1217  2.46%     -    0s
     0     0 39435.9919    0    2 39287.0790 39435.9919  0.38%     -    0s
H    0     0                    39288.311929 39435.9919  0.38%     -    0s
     0     0          -    0      39288.3119 39290.9983  0.01%     -    0s

Cutting planes:
  MIR: 2

Explored 1 nodes (365 simplex iterations) in 0.13 seconds (0.19 work units)
Thread count was 8 (of 8 available processors)

Solution count 4: 39288.3 39288.3 39287.1 38085.5 

Optimal solution found (tolerance 1.00e-04)
Best objective 3.928831192901e+04, best bound 3.929099832618e+04, gap 0.0068%
